(set-option :print-success false)
(set-logic QF_UF)
(declare-sort x187 0)
(declare-sort x186 0)
(declare-fun x176 (x186 x186) x186)
(declare-fun x168 () x186)
(declare-fun x216 () x186)
(declare-fun x104 () x186)
(declare-fun x8 () x186)
(declare-fun x83 () x186)
(declare-fun x162 (x186 x186) x186)
(declare-fun x121 () x186)
(declare-fun x6 () x186)
(assert (and (and (= (x162 x168 x104) x83) (and (and (= (x162 x83 x6) x8) (= (x162 x168 x6) x121)) (= (x162 x6 x6) x104))) (= x168 (x162 x104 x6))))
(assert (let ((x206 (x162 x168 x83)) (x229 (x162 x121 x104)) (x233 (x162 x104 x6)) (x262 (x162 x104 x83)) (x48 (x162 x121 x83)) (x127 (x162 x104 x168)) (x60 (x162 x121 x168)) (x226 (x162 x104 x121)) (x122 (x162 x168 x8)) (x99 (x162 x8 x6)) (x80 (x162 x8 x121)) (x46 (x162 x83 x83)) (x27 (x162 x168 x168)) (x16 (x162 x83 x121)) (x98 (x162 x6 x121)) (x193 (x162 x8 x83)) (x174 (x162 x121 x8)) (x124 (x162 x6 x6)) (x21 (x162 x121 x6)) (x112 (x162 x168 x104)) (x177 (x162 x8 x104)) (x71 (x162 x83 x6)) (x238 (x162 x6 x8)) (x26 (x162 x168 x6)) (x199 (x162 x8 x8)) (x56 (x162 x6 x168)) (x235 (x162 x83 x8)) (x95 (x162 x6 x83)) (x192 (x162 x6 x104)) (x157 (x162 x104 x104)) (x116 (x162 x83 x168)) (x244 (x162 x121 x121)) (x134 (x162 x8 x168)) (x255 (x162 x104 x8)) (x38 (x162 x168 x121)) (x230 (x162 x83 x104))) (and (and (and (or (= x26 x168) (or (= x26 x6) (or (= x83 x26) (or (= x26 x104) (or (= x121 x26) (= x8 x26)))))) (and (and (and (or (= x38 x168) (or (= x6 x38) (or (or (= x104 x38) (or (= x121 x38) (= x38 x8))) (= x83 x38)))) (or (or (or (or (or (= x121 x122) (= x122 x8)) (= x104 x122)) (= x83 x122)) (= x6 x122)) (= x122 x168))) (or (= x112 x168) (or (= x6 x112) (or (or (or (= x112 x121) (= x8 x112)) (= x104 x112)) (= x83 x112))))) (or (or (or (= x83 x206) (or (= x206 x104) (or (= x8 x206) (= x206 x121)))) (= x6 x206)) (= x168 x206)))) (or (or (or (= x83 x27) (or (or (= x27 x121) (= x8 x27)) (= x27 x104))) (= x27 x6)) (= x27 x168))) (and (and (and (or (or (or (or (or (= x124 x8) (= x124 x121)) (= x104 x124)) (= x124 x83)) (= x124 x6)) (= x168 x124)) (and (or (or (or (or (or (= x8 x95) (= x95 x121)) (= x104 x95)) (= x83 x95)) (= x95 x6)) (= x168 x95)) (and (and (or (or (or (or (or (= x98 x8) (= x121 x98)) (= x98 x104)) (= x98 x83)) (= x6 x98)) (= x168 x98)) (or (or (or (= x238 x83) (or (= x104 x238) (or (= x8 x238) (= x121 x238)))) (= x238 x6)) (= x168 x238))) (or (= x168 x192) (or (or (= x83 x192) (or (= x104 x192) (or (= x192 x8) (= x192 x121)))) (= x192 x6)))))) (or (= x168 x56) (or (or (or (= x56 x104) (or (= x56 x121) (= x56 x8))) (= x56 x83)) (= x56 x6)))) (and (and (and (and (and (and (and (or (or (or (= x83 x226) (or (or (= x226 x121) (= x226 x8)) (= x104 x226))) (= x226 x6)) (= x168 x226)) (or (= x168 x255) (or (= x6 x255) (or (or (or (= x121 x255) (= x8 x255)) (= x255 x104)) (= x83 x255))))) (or (or (or (or (= x104 x157) (or (= x157 x8) (= x157 x121))) (= x157 x83)) (= x157 x6)) (= x168 x157))) (or (or (or (or (= x104 x262) (or (= x262 x121) (= x8 x262))) (= x262 x83)) (= x6 x262)) (= x262 x168))) (or (= x233 x168) (or (= x233 x6) (or (or (= x104 x233) (or (= x233 x121) (= x233 x8))) (= x83 x233))))) (or (= x168 x127) (or (= x6 x127) (or (= x83 x127) (or (or (= x121 x127) (= x8 x127)) (= x127 x104)))))) (and (and (and (and (or (= x48 x168) (or (or (= x48 x83) (or (or (= x8 x48) (= x121 x48)) (= x104 x48))) (= x6 x48))) (and (and (or (= x244 x168) (or (= x6 x244) (or (or (= x104 x244) (or (= x8 x244) (= x121 x244))) (= x244 x83)))) (or (or (= x174 x6) (or (or (or (= x121 x174) (= x8 x174)) (= x174 x104)) (= x174 x83))) (= x168 x174))) (or (= x229 x168) (or (or (= x83 x229) (or (or (= x121 x229) (= x229 x8)) (= x229 x104))) (= x229 x6))))) (or (or (= x6 x21) (or (or (= x104 x21) (or (= x8 x21) (= x121 x21))) (= x83 x21))) (= x168 x21))) (or (or (or (= x60 x83) (or (= x60 x104) (or (= x8 x60) (= x121 x60)))) (= x60 x6)) (= x60 x168))) (and (or (= x168 x134) (or (= x6 x134) (or (or (= x104 x134) (or (= x121 x134) (= x8 x134))) (= x83 x134)))) (and (and (or (or (or (or (= x193 x104) (or (= x193 x8) (= x121 x193))) (= x193 x83)) (= x6 x193)) (= x168 x193)) (and (and (or (= x80 x168) (or (or (or (= x80 x104) (or (= x121 x80) (= x80 x8))) (= x80 x83)) (= x80 x6))) (or (= x199 x168) (or (= x199 x6) (or (= x199 x83) (or (= x104 x199) (or (= x199 x121) (= x199 x8))))))) (or (or (= x6 x177) (or (= x83 x177) (or (or (= x177 x8) (= x177 x121)) (= x177 x104)))) (= x168 x177)))) (or (= x168 x99) (or (= x6 x99) (or (= x83 x99) (or (= x104 x99) (or (= x99 x8) (= x99 x121)))))))))) (and (and (and (or (or (or (= x46 x83) (or (or (= x121 x46) (= x8 x46)) (= x46 x104))) (= x6 x46)) (= x46 x168)) (and (or (or (= x6 x230) (or (or (or (= x230 x121) (= x8 x230)) (= x104 x230)) (= x83 x230))) (= x230 x168)) (and (or (= x235 x168) (or (= x6 x235) (or (= x235 x83) (or (= x104 x235) (or (= x121 x235) (= x235 x8)))))) (or (or (or (= x16 x83) (or (or (= x16 x121) (= x16 x8)) (= x104 x16))) (= x16 x6)) (= x168 x16))))) (or (= x71 x168) (or (or (or (= x104 x71) (or (= x8 x71) (= x121 x71))) (= x71 x83)) (= x6 x71)))) (or (or (= x6 x116) (or (or (or (= x116 x8) (= x116 x121)) (= x104 x116)) (= x116 x83))) (= x168 x116))))))))
(assert (let ((x80 (x162 x121 (x162 x121 x121))) (x193 (x162 x83 (x162 x83 x83))) (x134 (x162 x168 (x162 x168 x168))) (x199 (x162 x8 (x162 x8 x8))) (x99 (x162 x6 (x162 x6 x6))) (x177 (x162 x104 (x162 x104 x104)))) (or (and (not (= x168 x134)) (and (not (= x168 x99)) (and (not (= x193 x168)) (and (not (= x177 x168)) (and (not (= x168 x199)) (not (= x80 x168))))))) (or (or (or (or (and (and (and (and (not (= x121 x177)) (and (not (= x199 x121)) (not (= x80 x121)))) (not (= x193 x121))) (not (= x99 x121))) (not (= x134 x121))) (and (not (= x134 x8)) (and (and (and (and (not (= x8 x80)) (not (= x199 x8))) (not (= x8 x177))) (not (= x193 x8))) (not (= x99 x8))))) (and (not (= x134 x104)) (and (not (= x104 x99)) (and (and (and (not (= x104 x80)) (not (= x199 x104))) (not (= x177 x104))) (not (= x104 x193)))))) (and (and (and (and (and (not (= x83 x80)) (not (= x83 x199))) (not (= x83 x177))) (not (= x83 x193))) (not (= x99 x83))) (not (= x83 x134)))) (and (and (and (and (and (not (= x6 x199)) (not (= x6 x80))) (not (= x6 x177))) (not (= x6 x193))) (not (= x6 x99))) (not (= x6 x134)))))))
(assert (let ((x262 (x162 x104 x83)) (x193 (x162 x8 x83)) (x244 (x162 x121 x121)) (x116 (x162 x83 x168)) (x26 (x162 x168 x6)) (x199 (x162 x8 x8)) (x233 (x162 x104 x6)) (x192 (x162 x6 x104)) (x80 (x162 x8 x121)) (x27 (x162 x168 x168)) (x124 (x162 x6 x6)) (x48 (x162 x121 x83)) (x174 (x162 x121 x8)) (x134 (x162 x8 x168)) (x255 (x162 x104 x8)) (x98 (x162 x6 x121)) (x235 (x162 x83 x8)) (x230 (x162 x83 x104)) (x229 (x162 x121 x104)) (x56 (x162 x6 x168)) (x127 (x162 x104 x168)) (x238 (x162 x6 x8)) (x60 (x162 x121 x168)) (x38 (x162 x168 x121)) (x21 (x162 x121 x6)) (x99 (x162 x8 x6)) (x226 (x162 x104 x121)) (x177 (x162 x8 x104)) (x46 (x162 x83 x83)) (x95 (x162 x6 x83)) (x16 (x162 x83 x121)) (x122 (x162 x168 x8)) (x157 (x162 x104 x104)) (x71 (x162 x83 x6)) (x206 (x162 x168 x83)) (x112 (x162 x168 x104))) (and (or (= (x162 x27 x27) x168) (or (= x6 (x162 x26 x26)) (or (= (x162 x206 x206) x83) (or (or (= (x162 x122 x122) x8) (= x121 (x162 x38 x38))) (= (x162 x112 x112) x104))))) (and (or (= (x162 x56 x56) x168) (or (= x6 (x162 x124 x124)) (or (= (x162 x95 x95) x83) (or (= x104 (x162 x192 x192)) (or (= x8 (x162 x238 x238)) (= (x162 x98 x98) x121)))))) (and (or (or (= x6 (x162 x71 x71)) (or (= x83 (x162 x46 x46)) (or (or (= x121 (x162 x16 x16)) (= (x162 x235 x235) x8)) (= x104 (x162 x230 x230))))) (= x168 (x162 x116 x116))) (and (and (or (= (x162 x60 x60) x168) (or (or (or (or (= x121 (x162 x244 x244)) (= (x162 x174 x174) x8)) (= x104 (x162 x229 x229))) (= x83 (x162 x48 x48))) (= x6 (x162 x21 x21)))) (or (= x168 (x162 x134 x134)) (or (or (or (= x104 (x162 x177 x177)) (or (= x8 (x162 x199 x199)) (= x121 (x162 x80 x80)))) (= x83 (x162 x193 x193))) (= (x162 x99 x99) x6)))) (or (or (= (x162 x233 x233) x6) (or (= x83 (x162 x262 x262)) (or (or (= x121 (x162 x226 x226)) (= x8 (x162 x255 x255))) (= (x162 x157 x157) x104)))) (= (x162 x127 x127) x168))))))))
(assert (let ((x230 (x162 x104 x83)) (x238 (x162 x8 x6)) (x244 (x162 x121 x121)) (x46 (x162 x83 x83)) (x124 (x162 x6 x6)) (x27 (x162 x168 x168)) (x255 (x162 x8 x104)) (x177 (x162 x104 x8)) (x174 (x162 x8 x121)) (x116 (x162 x168 x83)) (x235 (x162 x8 x83)) (x262 (x162 x83 x104)) (x48 (x162 x83 x121)) (x134 (x162 x168 x8)) (x112 (x162 x104 x168)) (x38 (x162 x121 x168)) (x206 (x162 x83 x168)) (x60 (x162 x168 x121)) (x95 (x162 x83 x6)) (x233 (x162 x6 x104)) (x26 (x162 x6 x168)) (x71 (x162 x6 x83)) (x80 (x162 x121 x8)) (x199 (x162 x8 x8)) (x226 (x162 x121 x104)) (x98 (x162 x121 x6)) (x127 (x162 x168 x104)) (x122 (x162 x8 x168)) (x99 (x162 x6 x8)) (x56 (x162 x168 x6)) (x16 (x162 x121 x83)) (x192 (x162 x104 x6)) (x229 (x162 x104 x121)) (x21 (x162 x6 x121)) (x193 (x162 x83 x8)) (x157 (x162 x104 x104))) (and (and (and (and (and (and (and (not (= x56 x192)) (and (and (and (not (= x98 x56)) (and (and (and (not (= x98 x192)) (and (and (and (and (not (= x192 x238)) (not (= x238 x98))) (not (= x238 x95))) (not (= x124 x238))) (not (= x238 x56)))) (not (= x98 x95))) (not (= x98 x124)))) (not (= x95 x192))) (not (= x124 x192)))) (not (= x124 x95))) (not (= x95 x56))) (not (= x124 x56))) (and (and (and (not (= x233 x127)) (and (not (= x262 x127)) (and (and (and (not (= x157 x233)) (and (not (= x262 x157)) (and (and (and (and (and (and (and (and (not (= x157 x255)) (not (= x226 x255))) (not (= x262 x255))) (not (= x255 x233))) (not (= x127 x255))) (not (= x226 x157))) (not (= x226 x262))) (not (= x226 x233))) (not (= x226 x127))))) (not (= x127 x157))) (not (= x262 x233))))) (and (and (and (and (not (= x99 x193)) (and (and (and (not (= x177 x193)) (and (and (and (and (not (= x80 x177)) (and (and (not (= x199 x99)) (and (not (= x199 x193)) (and (not (= x177 x199)) (not (= x80 x199))))) (not (= x199 x134)))) (not (= x193 x80))) (not (= x80 x99))) (not (= x80 x134)))) (not (= x177 x99))) (not (= x134 x177)))) (not (= x193 x134))) (not (= x134 x99))) (and (not (= x60 x21)) (and (not (= x48 x60)) (and (and (not (= x60 x229)) (and (and (not (= x229 x48)) (and (not (= x244 x60)) (and (not (= x21 x244)) (and (not (= x48 x244)) (and (and (not (= x60 x174)) (and (not (= x174 x21)) (and (not (= x174 x48)) (and (not (= x174 x229)) (not (= x244 x174)))))) (not (= x229 x244))))))) (not (= x21 x229)))) (not (= x48 x21))))))) (and (not (= x71 x116)) (and (and (not (= x46 x71)) (and (not (= x230 x116)) (and (and (not (= x230 x46)) (and (and (not (= x71 x16)) (and (not (= x46 x16)) (and (and (and (not (= x235 x71)) (and (not (= x46 x235)) (and (not (= x230 x235)) (not (= x235 x16))))) (not (= x235 x116))) (not (= x16 x230))))) (not (= x16 x116)))) (not (= x71 x230))))) (not (= x46 x116)))))) (and (and (not (= x27 x206)) (and (and (not (= x112 x27)) (and (not (= x112 x26)) (and (not (= x206 x112)) (and (not (= x38 x27)) (and (and (not (= x206 x38)) (and (and (not (= x27 x122)) (and (not (= x122 x26)) (and (not (= x122 x206)) (and (not (= x112 x122)) (not (= x38 x122)))))) (not (= x112 x38)))) (not (= x26 x38))))))) (not (= x26 x206)))) (not (= x26 x27)))) (and (and (not (= x27 x56)) (and (not (= x27 x116)) (and (and (and (not (= x127 x56)) (and (not (= x127 x116)) (and (not (= x27 x60)) (and (not (= x56 x60)) (and (and (and (and (not (= x134 x56)) (and (not (= x116 x134)) (and (not (= x60 x134)) (not (= x134 x127))))) (not (= x27 x134))) (not (= x60 x127))) (not (= x60 x116))))))) (not (= x27 x127))) (not (= x56 x116))))) (and (and (and (and (and (not (= x233 x26)) (and (not (= x124 x233)) (and (not (= x233 x71)) (and (not (= x21 x26)) (and (and (and (and (not (= x26 x99)) (and (not (= x99 x124)) (and (and (not (= x233 x99)) (not (= x99 x21))) (not (= x71 x99))))) (not (= x21 x233))) (not (= x21 x71))) (not (= x124 x21))))))) (not (= x71 x124))) (not (= x71 x26))) (not (= x124 x26))) (and (and (and (and (and (and (not (= x16 x98)) (and (not (= x226 x38)) (and (and (and (not (= x244 x38)) (and (and (not (= x244 x16)) (and (not (= x244 x226)) (and (not (= x38 x80)) (and (and (not (= x16 x80)) (and (not (= x80 x244)) (not (= x226 x80)))) (not (= x80 x98)))))) (not (= x98 x244)))) (not (= x16 x226))) (not (= x226 x98))))) (not (= x38 x16))) (not (= x98 x38))) (and (not (= x238 x122)) (and (not (= x122 x235)) (and (and (not (= x122 x255)) (and (and (not (= x235 x255)) (and (not (= x174 x122)) (and (and (not (= x174 x235)) (and (not (= x174 x255)) (and (and (and (and (not (= x174 x199)) (not (= x255 x199))) (not (= x199 x235))) (not (= x238 x199))) (not (= x199 x122))))) (not (= x174 x238))))) (not (= x255 x238)))) (not (= x235 x238)))))) (and (and (and (and (not (= x157 x112)) (and (not (= x192 x157)) (and (and (not (= x229 x112)) (and (not (= x192 x229)) (and (and (and (and (not (= x192 x177)) (and (not (= x177 x230)) (and (not (= x177 x157)) (not (= x229 x177))))) (not (= x112 x177))) (not (= x229 x157))) (not (= x229 x230))))) (not (= x230 x157))))) (not (= x230 x192))) (not (= x112 x230))) (not (= x112 x192)))) (and (not (= x95 x206)) (and (and (not (= x46 x95)) (and (and (and (and (and (and (and (and (and (not (= x193 x95)) (and (not (= x193 x46)) (and (not (= x262 x193)) (not (= x193 x48))))) (not (= x193 x206))) (not (= x48 x262))) (not (= x46 x48))) (not (= x48 x95))) (not (= x206 x48))) (not (= x46 x262))) (not (= x95 x262))) (not (= x262 x206)))) (not (= x46 x206))))))))))
(assert (let ((x124 (x162 x104 x121)) (x145 (x162 x104 x83)) (x238 (x162 x121 x6)) (x255 (x162 x168 x8)) (x177 (x162 x8 x121)) (x109 (x162 x168 x6)) (x122 (x162 x6 x121)) (x80 (x162 x8 x8)) (x48 (x162 x104 x8)) (x40 (x162 x168 x104)) (x60 (x162 x6 x8)) (x214 (x162 x6 x168)) (x99 (x162 x8 x83)) (x43 (x162 x83 x83)) (x119 (x162 x6 x6)) (x21 (x162 x83 x8)) (x134 (x162 x8 x6)) (x146 (x162 x6 x104)) (x256 (x162 x83 x104)) (x38 (x162 x168 x121)) (x147 (x162 x168 x168)) (x46 (x162 x121 x121)) (x227 (x162 x104 x6)) (x56 (x162 x83 x121)) (x71 (x162 x121 x104)) (x229 (x162 x121 x8)) (x185 (x162 x6 x83)) (x116 (x162 x121 x83)) (x149 (x162 x83 x6)) (x98 (x162 x121 x168)) (x193 (x162 x8 x104)) (x174 (x162 x8 x168)) (x156 (x162 x104 x168)) (x257 (x162 x83 x168)) (x47 (x162 x104 x104)) (x260 (x162 x168 x83))) (let ((x261 (= x121 x174)) (x132 (= x8 x124)) (x84 (= x116 x8)) (x251 (= x168 x147)) (x158 (= x116 x6)) (x171 (= x121 x122)) (x25 (= x134 x121)) (x18 (= x116 x168)) (x91 (= x104 x122)) (x31 (= x104 x227)) (x36 (= x38 x121)) (x215 (= x168 x149)) (x200 (= x104 x56)) (x19 (= x104 x48)) (x86 (= x260 x8)) (x32 (= x8 x43)) (x152 (= x83 x47)) (x90 (= x21 x8)) (x42 (= x229 x168)) (x224 (= x6 x193)) (x27 (= x83 x229)) (x262 (= x80 x6)) (x244 (= x80 x121)) (x131 (= x168 x145)) (x61 (= x38 x8)) (x69 (= x104 x119)) (x79 (= x156 x121)) (x33 (= x6 x145)) (x195 (= x38 x83)) (x125 (= x174 x8)) (x133 (= x257 x121)) (x17 (= x227 x168)) (x150 (= x83 x116)) (x96 (= x168 x48)) (x63 (= x146 x83)) (x101 (= x83 x177)) (x163 (= x104 x71)) (x239 (= x257 x104)) (x142 (= x260 x104)) (x143 (= x104 x185)) (x219 (= x83 x147)) (x97 (= x47 x8)) (x13 (= x98 x104)) (x165 (= x6 x238)) (x23 (= x256 x168)) (x234 (= x168 x119)) (x112 (= x229 x104)) (x170 (= x121 x60)) (x94 (= x121 x185)) (x259 (= x168 x47)) (x218 (= x6 x174)) (x213 (= x6 x38)) (x179 (= x8 x255)) (x164 (= x121 x238)) (x199 (= x8 x80)) (x81 (= x6 x134)) (x208 (= x255 x104)) (x190 (= x149 x104)) (x151 (= x83 x124)) (x11 (= x255 x83)) (x105 (= x193 x121)) (x159 (= x48 x6)) (x192 (= x121 x177)) (x183 (= x147 x121)) (x73 (= x8 x146)) (x231 (= x8 x109)) (x161 (= x104 x238)) (x144 (= x47 x104)) (x92 (= x104 x256)) (x59 (= x8 x40)) (x49 (= x146 x6)) (x197 (= x256 x121)) (x118 (= x156 x8)) (x212 (= x238 x83)) (x252 (= x99 x104)) (x9 (= x21 x168)) (x78 (= x227 x8)) (x166 (= x168 x109)) (x103 (= x6 x46)) (x136 (= x145 x8)) (x263 (= x104 x116)) (x153 (= x227 x121)) (x242 (= x6 x214)) (x130 (= x146 x104)) (x85 (= x185 x8)) (x221 (= x227 x6)) (x115 (= x119 x6)) (x232 (= x145 x121)) (x250 (= x6 x47)) (x148 (= x8 x149)) (x167 (= x83 x134)) (x180 (= x177 x6)) (x74 (= x121 x146)) (x207 (= x109 x83)) (x220 (= x174 x168)) (x189 (= x256 x83)) (x93 (= x193 x104)) (x51 (= x109 x104)) (x209 (= x46 x168)) (x58 (= x121 x48)) (x188 (= x56 x6)) (x128 (= x8 x122)) (x120 (= x229 x6)) (x117 (= x121 x40)) (x129 (= x71 x83)) (x182 (= x147 x104)) (x141 (= x255 x6)) (x225 (= x168 x260)) (x67 (= x8 x256)) (x66 (= x116 x121)) (x155 (= x8 x119)) (x76 (= x43 x6)) (x89 (= x177 x168)) (x87 (= x38 x168)) (x108 (= x147 x6)) (x254 (= x8 x238)) (x45 (= x104 x124)) (x184 (= x99 x6)) (x82 (= x98 x83)) (x222 (= x260 x121)) (x217 (= x134 x168)) (x172 (= x104 x21)) (x107 (= x71 x121)) (x205 (= x214 x121)) (x223 (= x8 x71)) (x206 (= x177 x104)) (x137 (= x168 x71)) (x230 (= x229 x121)) (x235 (= x177 x8)) (x4 (= x40 x104)) (x240 (= x8 x98)) (x37 (= x121 x21)) (x7 (= x83 x119)) (x55 (= x121 x109)) (x28 (= x98 x121)) (x62 (= x119 x121)) (x248 (= x122 x6)) (x135 (= x156 x6)) (x139 (= x43 x121)) (x201 (= x185 x6)) (x203 (= x99 x83)) (x157 (= x80 x83)) (x243 (= x83 x149)) (x228 (= x99 x8)) (x39 (= x104 x38)) (x54 (= x6 x109)) (x75 (= x8 x214)) (x34 (= x60 x6)) (x12 (= x257 x8)) (x198 (= x168 x124)) (x127 (= x229 x8)) (x113 (= x6 x21)) (x194 (= x83 x214)) (x22 (= x104 x156)) (x202 (= x43 x168)) (x68 (= x6 x71)) (x246 (= x149 x121)) (x126 (= x168 x56)) (x26 (= x46 x104)) (x196 (= x256 x6)) (x173 (= x8 x48)) (x175 (= x46 x83)) (x226 (= x80 x104)) (x211 (= x6 x98)) (x20 (= x48 x83)) (x110 (= x174 x83)) (x160 (= x104 x134)) (x191 (= x168 x185)) (x3 (= x56 x121)) (x35 (= x21 x83)) (x245 (= x60 x168)) (x210 (= x83 x60)) (x5 (= x122 x83)) (x29 (= x60 x104)) (x258 (= x8 x134)) (x14 (= x260 x83)) (x15 (= x6 x149)) (x236 (= x193 x83)) (x41 (= x174 x104)) (x53 (= x238 x168)) (x2 (= x8 x60)) (x70 (= x145 x104)) (x95 (= x46 x121)) (x77 (= x257 x168)) (x247 (= x168 x98)) (x237 (= x104 x43)) (x52 (= x168 x122)) (x16 (= x46 x8)) (x233 (= x80 x168)) (x50 (= x56 x8)) (x253 (= x121 x255)) (x138 (= x168 x193)) (x169 (= x255 x168)) (x140 (= x83 x227)) (x30 (= x83 x56)) (x64 (= x168 x146)) (x154 (= x124 x6)) (x106 (= x257 x83)) (x72 (= x104 x214)) (x57 (= x214 x168)) (x111 (= x40 x168)) (x100 (= x260 x6)) (x181 (= x47 x121)) (x44 (= x193 x8)) (x10 (= x185 x83)) (x24 (= x147 x8)) (x241 (= x83 x156)) (x123 (= x121 x99)) (x249 (= x99 x168)) (x1 (= x168 x156)) (x204 (= x43 x83)) (x88 (= x83 x145)) (x114 (= x6 x40)) (x102 (= x257 x6)) (x178 (= x40 x83)) (x65 (= x121 x124))) (and (and (and (and (and (and (or x182 (or (or x142 (or (or x39 x208) x4)) x51)) (or x182 (or (or (or (or x13 x41) x22) x239) x72))) (and (and (or (or (or x12 (or (or x240 x125) x118)) x75) x24) (or x24 (or x231 (or x86 (or x59 (or x61 x179)))))) (and (or (or (or (or x79 (or x28 x261)) x133) x205) x183) (or x183 (or (or x222 (or x117 (or x36 x253))) x55))))) (and (or x219 (or x207 (or (or x178 (or x11 x195)) x14))) (or (or (or (or (or x110 x82) x241) x106) x194) x219))) (and (or (or x54 (or (or x114 (or x141 x213)) x100)) x108) (or x108 (or x242 (or (or (or x211 x218) x135) x102))))) (and (or x251 (or (or x225 (or (or x87 x169) x111)) x166)) (or (or (or x77 (or (or x220 x247) x1)) x57) x251))) (and (and (and (or (or (or (or x64 (or x52 x245)) x191) x234) x57) (or x166 (or (or x215 (or (or x217 x53) x17)) x234))) (and (and (and (and (or x51 (or (or (or x31 (or x160 x161)) x190) x69)) (or (or x69 (or x143 (or (or x29 x91) x130))) x72)) (and (and (or x205 (or x62 (or x94 (or x74 (or x170 x171))))) (or (or (or x246 (or (or x164 x25) x153)) x62) x55)) (and (or (or (or x85 (or (or x128 x2) x73)) x155) x75) (or x231 (or (or x148 (or (or x254 x258) x78)) x155))))) (and (or (or (or x243 (or x140 (or x167 x212))) x7) x207) (or x194 (or x7 (or x10 (or x63 (or x5 x210))))))) (and (or (or (or x201 (or (or x248 x34) x49)) x115) x242) (or x54 (or (or x15 (or (or x165 x81) x221)) x115))))) (and (and (and (or (or (or (or x23 (or x9 x126)) x202) x215) x77) (or (or (or (or x131 (or x249 x18)) x202) x191) x225)) (and (and (or (or x201 (or x76 (or x33 (or x158 x184)))) x100) (or (or (or x76 (or x196 (or x188 x113))) x15) x102)) (and (and (or (or (or (or (or x30 x35) x189) x204) x243) x106) (or x14 (or (or x204 (or x88 (or x150 x203))) x10))) (and (and (or (or (or (or (or x172 x200) x92) x237) x190) x239) (or x142 (or x143 (or x237 (or (or x263 x252) x70))))) (and (and (or (or (or x139 (or x197 (or x37 x3))) x246) x133) (or (or x94 (or x139 (or (or x123 x66) x232))) x222)) (and (or (or (or x32 (or x136 (or x84 x228))) x85) x86) (or (or (or (or x67 (or x50 x90)) x32) x148) x12))))))) (and (and (and (and (or x247 (or x53 (or (or (or x209 x42) x137) x18))) (or x87 (or x52 (or x126 (or x198 (or x89 x209)))))) (and (and (and (or x82 (or (or (or x129 (or x27 x175)) x150) x212)) (or (or x5 (or x30 (or (or x175 x101) x151))) x195)) (and (and (or (or (or x263 (or (or x112 x26) x163)) x161) x13) (or x39 (or (or x200 (or (or x26 x206) x45)) x91))) (and (and (or x240 (or x254 (or x84 (or (or x16 x127) x223)))) (or x61 (or (or (or x132 (or x235 x16)) x50) x128))) (and (or x28 (or x164 (or x66 (or x107 (or x230 x95))))) (or (or (or x3 (or (or x192 x95) x65)) x171) x36))))) (and (or x211 (or (or (or x68 (or x120 x103)) x158) x165)) (or (or x248 (or x188 (or x154 (or x103 x180)))) x213)))) (and (and (or (or x245 (or (or (or x42 x233) x96) x9)) x169) (or (or x217 (or (or x138 (or x89 x233)) x249)) x220)) (and (and (and (or x110 (or x167 (or x203 (or x236 (or x101 x157))))) (or (or (or (or x20 (or x27 x157)) x35) x210) x11)) (and (and (or (or (or (or (or x226 x112) x19) x172) x29) x208) (or x41 (or x160 (or (or x93 (or x226 x206)) x252)))) (and (and (or (or (or (or x44 (or x199 x235)) x228) x258) x125) (or (or (or (or x173 (or x199 x127)) x90) x2) x179)) (and (or x261 (or x25 (or x123 (or x105 (or x192 x244))))) (or (or (or x37 (or (or x244 x230) x58)) x170) x253))))) (and (or x218 (or x81 (or (or (or x180 x262) x224) x184))) (or x141 (or x34 (or (or (or x120 x262) x159) x113))))))) (and (and (or (or (or x23 (or (or x137 x138) x259)) x64) x111) (or (or x17 (or (or (or x96 x198) x259) x131)) x1)) (and (and (or x135 (or (or (or x250 (or x159 x154)) x33) x221)) (or (or x49 (or (or (or x224 x68) x250) x196)) x114)) (and (and (and (and (or x79 (or x153 (or x232 (or (or x58 x65) x181)))) (or (or (or (or x181 (or x105 x107)) x197) x74) x117)) (and (or (or x73 (or x67 (or (or x44 x223) x97))) x59) (or x118 (or x78 (or x136 (or (or x173 x132) x97)))))) (and (or (or x130 (or x92 (or (or x93 x163) x144))) x4) (or (or x31 (or x70 (or (or x45 x19) x144))) x22))) (and (or x241 (or (or x88 (or x152 (or x151 x20))) x140)) (or x178 (or (or (or x152 (or x129 x236)) x189) x63)))))))))))))
(assert (and (and (and (and (and (and (= (x162 x104 x216) x104) (= x104 (x162 x216 x104))) (and (and (= (x162 x216 x121) x121) (= (x162 x121 x216) x121)) (and (= x8 (x162 x8 x216)) (= (x162 x216 x8) x8)))) (and (= (x162 x83 x216) x83) (= (x162 x216 x83) x83))) (and (= (x162 x216 x6) x6) (= (x162 x6 x216) x6))) (and (= x168 (x162 x168 x216)) (= (x162 x216 x168) x168))) (or (= x168 x216) (or (= x216 x6) (or (or (= x104 x216) (or (= x216 x121) (= x216 x8))) (= x216 x83))))))
(assert (not (and (= x8 (x162 x168 x168)) (and (and (= x104 (x162 x168 x83)) (and (and (and (= x168 (x162 x168 x8)) (and (= (x162 x6 x168) x121) (and (= (x162 x6 x6) x104) (and (and (= x168 (x162 x6 x104)) (and (and (= x6 (x162 x6 x8)) (and (= (x162 x83 x168) x104) (and (= (x162 x83 x6) x8) (and (and (and (= (x162 x83 x121) x168) (and (and (and (and (and (and (and (and (= (x162 x121 x168) x6) (and (= (x162 x121 x6) x83) (and (and (= (x162 x121 x104) x8) (and (and (= (x162 x121 x8) x121) (and (and (= x6 (x162 x8 x6)) (and (= (x162 x8 x83) x83) (and (= (x162 x8 x104) x104) (and (= x8 (x162 x8 x8)) (= x121 (x162 x8 x121)))))) (= x168 (x162 x8 x168)))) (= (x162 x121 x121) x104))) (= x168 (x162 x121 x83))))) (= (x162 x104 x8) x104)) (= (x162 x104 x121) x8)) (= x6 (x162 x104 x104))) (= x121 (x162 x104 x83))) (= (x162 x104 x6) x168)) (= (x162 x104 x168) x83)) (= (x162 x83 x8) x83))) (= x121 (x162 x83 x104))) (= x6 (x162 x83 x83)))))) (= (x162 x6 x121) x83))) (= x8 (x162 x6 x83)))))) (= x6 (x162 x168 x121))) (= (x162 x168 x104) x83))) (= x121 (x162 x168 x6))))))
(assert (let ((x193 (x162 x83 x83)) (x177 (x162 x104 x104)) (x80 (x162 x121 x121)) (x199 (x162 x8 x8)) (x99 (x162 x6 x6)) (x134 (x162 x168 x168))) (and (and (or (= x216 x99) (or (not (= (x162 x6 x99) x216)) (or (not (= x6 (x162 x99 x99))) (not (= x216 (x162 x99 x6)))))) (and (and (or (= x177 x216) (or (not (= (x162 x104 x177) x216)) (or (not (= x104 (x162 x177 x177))) (not (= (x162 x177 x104) x216))))) (and (or (= x80 x216) (or (or (not (= (x162 x80 x80) x121)) (not (= (x162 x80 x121) x216))) (not (= (x162 x121 x80) x216)))) (or (= x216 x199) (or (or (not (= (x162 x199 x199) x8)) (not (= (x162 x199 x8) x216))) (not (= x216 (x162 x8 x199))))))) (or (or (or (not (= x83 (x162 x193 x193))) (not (= (x162 x193 x83) x216))) (not (= (x162 x83 x193) x216))) (= x193 x216)))) (or (= x216 x134) (or (not (= x216 (x162 x168 x134))) (or (not (= x168 (x162 x134 x134))) (not (= (x162 x134 x168) x216))))))))
(assert (and (not (= x6 x168)) (and (not (= x83 x168)) (and (and (and (not (= x6 x104)) (and (and (and (not (= x121 x6)) (and (not (= x121 x83)) (and (not (= x104 x121)) (and (not (= x168 x8)) (and (not (= x6 x8)) (and (and (not (= x8 x121)) (not (= x8 x104))) (not (= x83 x8)))))))) (not (= x168 x121))) (not (= x104 x83)))) (not (= x168 x104))) (not (= x83 x6))))))
(assert (not (and (and (and (= (x162 x168 x83) x104) (and (and (and (and (= (x162 x6 x168) x121) (and (and (= (x162 x6 x83) x8) (and (= x168 (x162 x6 x104)) (and (= (x162 x6 x121) x83) (and (and (and (and (= (x162 x83 x83) x6) (and (= (x162 x83 x104) x121) (and (= x168 (x162 x83 x121)) (and (and (= (x162 x104 x168) x83) (and (= x168 (x162 x104 x6)) (and (= x121 (x162 x104 x83)) (and (and (and (and (= x6 (x162 x121 x168)) (and (and (and (= (x162 x121 x104) x8) (and (and (and (and (and (and (= (x162 x8 x104) x104) (and (= x121 (x162 x8 x121)) (= (x162 x8 x8) x8))) (= x83 (x162 x8 x83))) (= (x162 x8 x6) x6)) (= x168 (x162 x8 x168))) (= x121 (x162 x121 x8))) (= x104 (x162 x121 x121)))) (= x168 (x162 x121 x83))) (= x83 (x162 x121 x6)))) (= x104 (x162 x104 x8))) (= (x162 x104 x121) x8)) (= x6 (x162 x104 x104)))))) (= x83 (x162 x83 x8)))))) (= x8 (x162 x83 x6))) (= x104 (x162 x83 x168))) (= x6 (x162 x6 x8)))))) (= x104 (x162 x6 x6)))) (= (x162 x168 x8) x168)) (= (x162 x168 x121) x6)) (= (x162 x168 x104) x83))) (= x121 (x162 x168 x6))) (= x8 (x162 x168 x168)))))
(assert (let ((x127 (x162 x6 x8)) (x80 (x162 x8 x121)) (x199 (x162 x8 x8)) (x177 (x162 x121 x8)) (x46 (x162 x6 x104)) (x193 (x162 x121 x121)) (x116 (x162 x6 x83)) (x48 (x162 x8 x83)) (x174 (x162 x121 x104)) (x27 (x162 x168 x168)) (x255 (x162 x83 x121)) (x26 (x162 x168 x6)) (x262 (x162 x83 x83)) (x38 (x162 x83 x168)) (x157 (x162 x83 x104)) (x95 (x162 x121 x168)) (x226 (x162 x104 x83)) (x230 (x162 x104 x6)) (x71 (x162 x83 x6)) (x124 (x162 x168 x121)) (x206 (x162 x6 x168)) (x233 (x162 x8 x6)) (x235 (x162 x121 x6)) (x244 (x162 x104 x121)) (x192 (x162 x168 x8)) (x134 (x162 x104 x8)) (x21 (x162 x83 x8)) (x56 (x162 x104 x168)) (x60 (x162 x121 x83)) (x238 (x162 x6 x6)) (x229 (x162 x104 x104)) (x98 (x162 x8 x168)) (x122 (x162 x168 x104)) (x16 (x162 x6 x121)) (x99 (x162 x8 x104)) (x112 (x162 x168 x83))) (and (and (and (= x206 x26) (and (and (= x71 x116) (and (and (= x233 x127) (= x16 x235)) (= x46 x230))) (= x238 x238))) (and (and (and (and (and (and (and (and (= x177 x80) (= x193 x193)) (= x174 x244)) (= x60 x255)) (= x235 x16)) (= x124 x95)) (and (and (and (= x48 x21) (and (and (= x177 x80) (= x199 x199)) (= x134 x99))) (= x233 x127)) (= x192 x98))) (and (and (and (and (= x229 x229) (and (= x174 x244) (= x99 x134))) (= x157 x226)) (= x46 x230)) (= x122 x56))) (and (= x38 x112) (and (= x71 x116) (and (and (and (= x60 x255) (= x21 x48)) (= x157 x226)) (= x262 x262)))))) (and (= x27 x27) (and (and (and (and (= x192 x98) (= x95 x124)) (= x122 x56)) (= x112 x38)) (= x26 x206))))))
(check-sat)
(exit)
